
n_res = 8;
rcap = [76, 79, 93, 84, 705, 790, 755, 816];
rtype = [1, 1, 1, 1, 2, 2, 2, 2];
n_tasks = 50;
modes =  [{1, 2, 3, 4, 5, 6}, {7, 8, 9, 10, 11, 12}, {13, 14, 15, 16, 17, 18}, {19, 20, 21, 22, 23, 24}, {25, 26, 27, 28, 29, 30}, {31, 32, 33, 34, 35, 36}, {37, 38, 39, 40, 41, 42}, {43, 44, 45, 46, 47, 48}, {49, 50, 51, 52, 53, 54}, {55, 56, 57, 58, 59, 60}, {61, 62, 63, 64, 65, 66}, {67, 68, 69, 70, 71, 72}, {73, 74, 75, 76, 77, 78}, {79, 80, 81, 82, 83, 84}, {85, 86, 87, 88, 89, 90}, {91, 92, 93, 94, 95, 96}, {97, 98, 99, 100, 101, 102}, {103, 104, 105, 106, 107, 108}, {109, 110, 111, 112, 113, 114}, {115, 116, 117, 118, 119, 120}, {121, 122, 123, 124, 125, 126}, {127, 128, 129, 130, 131, 132}, {133, 134, 135, 136, 137, 138}, {139, 140, 141, 142, 143, 144}, {145, 146, 147, 148, 149, 150}, {151, 152, 153, 154, 155, 156}, {157, 158, 159, 160, 161, 162}, {163, 164, 165, 166, 167, 168}, {169, 170, 171, 172, 173, 174}, {175, 176, 177, 178, 179, 180}, {181, 182, 183, 184, 185, 186}, {187, 188, 189, 190, 191, 192}, {193, 194, 195, 196, 197, 198}, {199, 200, 201, 202, 203, 204}, {205, 206, 207, 208, 209, 210}, {211, 212, 213, 214, 215, 216}, {217, 218, 219, 220, 221, 222}, {223, 224, 225, 226, 227, 228}, {229, 230, 231, 232, 233, 234}, {235, 236, 237, 238, 239, 240}, {241, 242, 243, 244, 245, 246}, {247, 248, 249, 250, 251, 252}, {253, 254, 255, 256, 257, 258}, {259, 260, 261, 262, 263, 264}, {265, 266, 267, 268, 269, 270}, {271, 272, 273, 274, 275, 276}, {277, 278, 279, 280, 281, 282}, {283, 284, 285, 286, 287, 288}, {289, 290, 291, 292, 293, 294}, {295, 296, 297, 298, 299, 300}];
succ =  [{9, 8, 5}, {13, 10, 9, 8, 7}, {19, 18, 13, 12, 11, 10}, {15, 14, 13, 11, 9, 8}, {18, 14, 13, 12, 7}, {13, 11, 8}, {22, 19, 16, 15, 11}, {38, 25, 22, 19, 18, 17, 16}, {38, 27, 25, 22, 20, 18, 17}, {20, 15, 14}, {38, 30, 27, 25, 20, 17}, {38, 30, 25, 22, 20, 17}, {38, 30, 22, 20, 16}, {38, 30, 29, 23, 22, 21}, {38, 30, 29, 27, 21}, {29, 27, 26, 24, 23}, {29, 24, 23, 21}, {30, 29, 24, 21}, {29, 27, 20}, {21}, {37, 35, 32, 28, 26}, {31, 24}, {37, 35, 34, 33, 31}, {35, 28}, {31, 28}, {36, 33, 31}, {32, 31}, {41, 34, 33}, {41, 35, 34}, {31}, {42, 41, 40, 39}, {40, 33}, {44, 42, 39}, {43, 42, 40}, {44, 39}, {44, 39}, {46, 44, 43, 42}, {39}, {50, 48, 46, 43}, {50, 49, 45, 44}, {44, 43}, {49, 48, 47}, {49, 45}, {48, 47}, {47}, {47}, {}, {}, {}, {}];
n_opt = 300;
dur = [9, 13, 14, 16, 18, 19, 21, 22, 23, 24, 25, 30, 1, 8, 11, 12, 23, 24, 2, 13, 14, 15, 22, 30, 3, 8, 9, 18, 22, 28, 5, 8, 11, 13, 22, 27, 3, 5, 22, 25, 27, 28, 1, 13, 17, 18, 19, 20, 2, 3, 11, 12, 19, 20, 1, 3, 4, 5, 17, 25, 2, 15, 21, 27, 29, 30, 7, 9, 19, 20, 26, 28, 6, 8, 9, 10, 15, 25, 10, 15, 18, 23, 29, 30, 5, 11, 20, 25, 26, 29, 1, 6, 10, 11, 22, 28, 8, 11, 12, 15, 22, 30, 4, 9, 10, 16, 18, 19, 7, 14, 15, 20, 21, 26, 14, 19, 22, 27, 28, 30, 2, 17, 18, 21, 22, 23, 1, 13, 18, 19, 29, 30, 1, 8, 12, 18, 23, 29, 3, 4, 5, 7, 13, 15, 3, 4, 6, 15, 19, 29, 5, 10, 14, 15, 24, 27, 2, 8, 9, 24, 26, 27, 4, 11, 13, 16, 17, 27, 5, 6, 7, 23, 26, 27, 1, 8, 9, 11, 12, 15, 6, 14, 15, 16, 20, 28, 2, 4, 17, 20, 21, 30, 8, 11, 12, 13, 17, 19, 1, 3, 4, 5, 9, 30, 3, 11, 12, 15, 25, 27, 8, 9, 15, 18, 23, 25, 4, 5, 6, 7, 19, 30, 3, 9, 16, 21, 25, 27, 6, 15, 18, 20, 28, 30, 4, 9, 15, 18, 20, 29, 7, 10, 13, 17, 19, 25, 13, 18, 19, 20, 26, 30, 2, 9, 15, 20, 21, 22, 6, 9, 10, 11, 22, 26, 1, 6, 9, 12, 21, 24, 7, 12, 13, 27, 28, 29, 2, 3, 8, 12, 16, 28, 2, 3, 15, 23, 24, 30, 3, 12, 13, 14, 21, 25, 16, 18, 26, 27, 28, 29];
rreq = [|14, 13, 13, 12, 12, 11, 12, 9, 7, 7, 5, 1, 7, 6, 5, 5, 4, 4, 21, 19, 14, 12, 10, 4, 14, 13, 12, 10, 8, 7, 21, 19, 16, 13, 9, 9, 24, 23, 22, 21, 19, 18, 17, 16, 13, 9, 8, 5, 22, 22, 22, 22, 22, 22, 23, 22, 22, 22, 22, 22, 24, 21, 21, 19, 16, 15, 14, 14, 14, 14, 14, 14, 1, 1, 1, 1, 1, 1, 15, 14, 14, 14, 14, 14, 19, 17, 16, 16, 14, 14, 11, 9, 8, 6, 2, 2, 12, 11, 11, 9, 9, 7, 16, 15, 15, 15, 15, 15, 19, 18, 15, 13, 12, 11, 4, 3, 3, 2, 1, 1, 19, 18, 17, 17, 16, 16, 18, 17, 17, 17, 16, 15, 6, 5, 5, 4, 4, 4, 16, 14, 12, 11, 8, 7, 12, 12, 11, 11, 11, 10, 23, 20, 16, 12, 9, 6, 16, 14, 13, 12, 11, 10, 23, 18, 17, 15, 11, 9, 21, 17, 15, 14, 11, 11, 12, 12, 12, 12, 12, 12, 12, 9, 7, 7, 6, 3, 20, 15, 15, 13, 8, 7, 18, 17, 14, 14, 10, 9, 10, 9, 7, 5, 4, 3, 14, 10, 9, 8, 5, 2, 19, 19, 19, 19, 19, 19, 7, 7, 7, 7, 6, 6, 18, 17, 14, 13, 11, 9, 7, 7, 7, 7, 7, 7, 14, 13, 13, 13, 12, 12, 14, 13, 11, 8, 7, 6, 19, 18, 18, 16, 15, 14, 7, 7, 5, 5, 4, 3, 10, 9, 9, 6, 4, 3, 5, 4, 4, 4, 4, 4, 6, 6, 5, 4, 3, 3, 23, 23, 21, 20, 20, 19, 24, 23, 23, 22, 22, 21, 19, 18, 17, 17, 15, 15, 7, 6, 5, 5, 4, 4
 |17, 14, 14, 12, 9, 8, 17, 14, 13, 10, 7, 3, 6, 4, 4, 4, 3, 2, 9, 9, 7, 4, 2, 1, 11, 11, 9, 9, 7, 5, 20, 19, 18, 18, 17, 17, 15, 12, 9, 9, 4, 3, 14, 14, 11, 10, 9, 8, 13, 13, 13, 12, 11, 11, 14, 14, 11, 9, 8, 6, 18, 18, 17, 16, 16, 15, 16, 15, 14, 12, 12, 11, 21, 19, 19, 17, 17, 16, 20, 18, 16, 15, 10, 8, 8, 7, 7, 6, 6, 5, 13, 12, 11, 11, 9, 9, 10, 9, 8, 6, 6, 5, 13, 13, 12, 12, 11, 11, 13, 9, 8, 5, 3, 2, 23, 16, 16, 11, 8, 6, 7, 6, 6, 5, 4, 4, 10, 7, 7, 5, 4, 3, 12, 11, 10, 10, 8, 7, 23, 16, 12, 8, 6, 3, 3, 3, 3, 3, 3, 3, 13, 12, 12, 12, 11, 11, 22, 20, 20, 19, 18, 18, 18, 14, 11, 9, 7, 7, 16, 15, 15, 15, 14, 14, 10, 10, 10, 10, 10, 10, 15, 14, 12, 10, 9, 8, 11, 11, 11, 11, 11, 11, 22, 21, 19, 15, 15, 13, 13, 12, 10, 10, 9, 8, 21, 19, 18, 17, 16, 15, 20, 19, 19, 19, 19, 19, 16, 14, 14, 13, 12, 11, 23, 22, 21, 20, 19, 18, 21, 20, 20, 19, 18, 17, 10, 9, 8, 7, 6, 5, 13, 13, 11, 6, 6, 3, 7, 5, 5, 4, 3, 3, 6, 6, 6, 6, 6, 6, 19, 19, 18, 16, 16, 15, 7, 7, 6, 5, 4, 4, 10, 10, 9, 9, 9, 8, 22, 17, 15, 8, 7, 4, 19, 17, 15, 15, 12, 12, 21, 18, 14, 14, 11, 8, 20, 18, 16, 12, 11, 9
 |15, 14, 12, 12, 11, 10, 13, 13, 10, 7, 5, 2, 10, 10, 8, 7, 6, 5, 18, 14, 12, 8, 6, 3, 13, 12, 10, 10, 9, 8, 14, 12, 12, 11, 8, 7, 15, 11, 10, 8, 6, 3, 13, 11, 10, 8, 5, 2, 10, 9, 8, 7, 6, 6, 13, 11, 11, 10, 8, 7, 19, 15, 15, 9, 8, 3, 21, 16, 14, 8, 5, 4, 21, 20, 20, 19, 17, 16, 22, 22, 21, 21, 19, 19, 23, 18, 14, 12, 8, 5, 11, 10, 10, 9, 8, 8, 8, 7, 5, 5, 3, 2, 9, 8, 8, 8, 8, 8, 14, 11, 10, 10, 7, 5, 4, 4, 4, 4, 4, 4, 14, 13, 13, 13, 13, 13, 5, 5, 5, 5, 5, 5, 9, 9, 9, 8, 8, 7, 5, 4, 4, 4, 3, 3, 19, 16, 14, 12, 7, 4, 18, 14, 11, 7, 5, 3, 7, 6, 6, 5, 5, 4, 12, 12, 12, 12, 12, 12, 22, 21, 21, 20, 19, 19, 12, 12, 10, 10, 8, 8, 12, 12, 12, 12, 12, 12, 24, 24, 24, 24, 24, 24, 21, 19, 17, 16, 14, 12, 16, 14, 12, 11, 9, 8, 14, 12, 12, 10, 7, 7, 8, 5, 4, 4, 3, 1, 21, 20, 20, 17, 17, 16, 19, 16, 14, 14, 11, 10, 15, 12, 12, 10, 8, 7, 8, 6, 6, 5, 5, 4, 3, 3, 3, 3, 3, 3, 21, 20, 20, 19, 19, 19, 20, 18, 14, 13, 10, 6, 16, 13, 12, 8, 8, 3, 16, 13, 10, 7, 7, 3, 14, 13, 12, 10, 8, 7, 19, 16, 11, 10, 5, 1, 13, 13, 13, 13, 13, 13, 13, 10, 8, 6, 5, 1, 4, 3, 3, 2, 2, 1
 |10, 10, 10, 10, 10, 10, 12, 11, 11, 11, 11, 11, 13, 11, 11, 11, 9, 9, 8, 7, 6, 4, 4, 2, 14, 14, 12, 12, 10, 10, 23, 22, 22, 22, 22, 22, 21, 17, 16, 13, 7, 7, 10, 10, 10, 10, 9, 9, 19, 18, 15, 9, 6, 6, 19, 18, 18, 17, 16, 16, 16, 13, 10, 10, 7, 4, 17, 17, 15, 14, 12, 10, 8, 7, 7, 7, 7, 7, 19, 19, 18, 16, 16, 15, 14, 13, 13, 13, 13, 13, 12, 9, 8, 6, 4, 4, 18, 17, 17, 17, 15, 15, 17, 15, 13, 12, 11, 11, 8, 8, 7, 6, 5, 5, 17, 14, 14, 11, 9, 9, 5, 4, 4, 4, 4, 4, 16, 14, 13, 10, 5, 4, 8, 7, 7, 7, 6, 6, 8, 8, 7, 6, 5, 5, 21, 19, 17, 11, 11, 6, 19, 19, 16, 15, 13, 11, 9, 9, 9, 8, 8, 8, 15, 14, 13, 13, 11, 11, 22, 21, 20, 19, 16, 15, 12, 10, 10, 8, 7, 6, 20, 18, 18, 17, 16, 16, 22, 18, 18, 14, 12, 11, 11, 11, 10, 10, 9, 9, 7, 7, 7, 7, 7, 7, 9, 7, 5, 4, 3, 2, 11, 9, 8, 6, 4, 3, 19, 19, 12, 10, 5, 2, 19, 15, 13, 10, 10, 7, 8, 7, 7, 6, 6, 6, 23, 23, 23, 22, 22, 21, 24, 22, 21, 18, 18, 17, 22, 19, 18, 13, 11, 11, 21, 19, 16, 15, 11, 9, 7, 7, 6, 6, 5, 5, 22, 22, 22, 22, 22, 22, 13, 12, 12, 11, 11, 10, 19, 18, 18, 17, 17, 17, 11, 11, 7, 6, 4, 3, 11, 8, 8, 5, 3, 2, 23, 21, 19, 18, 16, 14
 |21, 20, 15, 12, 8, 7, 13, 11, 11, 8, 6, 5, 21, 18, 13, 10, 7, 5, 28, 23, 21, 17, 12, 9, 25, 25, 21, 18, 12, 11, 29, 28, 28, 27, 27, 27, 12, 11, 9, 7, 4, 3, 18, 17, 13, 10, 4, 1, 15, 14, 14, 14, 12, 12, 23, 21, 20, 19, 15, 15, 27, 26, 25, 25, 24, 24, 6, 6, 5, 5, 3, 3, 13, 13, 12, 12, 12, 11, 27, 26, 25, 24, 23, 22, 4, 4, 4, 4, 4, 4, 22, 22, 21, 19, 18, 17, 21, 18, 15, 13, 12, 7, 22, 17, 16, 14, 11, 10, 3, 3, 3, 2, 2, 1, 25, 20, 15, 12, 7, 4, 26, 21, 17, 15, 8, 4, 23, 21, 20, 19, 18, 15, 6, 6, 5, 5, 5, 4, 18, 18, 17, 17, 16, 16, 18, 16, 12, 12, 7, 4, 14, 11, 9, 7, 5, 5, 6, 6, 6, 5, 5, 4, 28, 25, 16, 16, 11, 3, 8, 8, 8, 8, 8, 8, 7, 6, 4, 3, 2, 1, 24, 23, 20, 15, 12, 10, 20, 18, 16, 15, 13, 10, 25, 24, 24, 23, 22, 22, 5, 4, 4, 4, 4, 4, 23, 21, 19, 14, 13, 11, 29, 26, 22, 20, 17, 14, 13, 12, 12, 12, 12, 12, 8, 7, 7, 6, 6, 5, 29, 28, 28, 28, 28, 28, 25, 24, 22, 21, 21, 20, 12, 12, 12, 11, 11, 11, 24, 17, 13, 10, 6, 2, 17, 17, 17, 17, 17, 17, 2, 1, 1, 1, 1, 1, 29, 28, 27, 27, 26, 26, 30, 29, 27, 27, 26, 25, 14, 12, 11, 9, 8, 6, 23, 21, 17, 17, 14, 13, 1, 1, 1, 1, 1, 1, 19, 16, 16, 13, 11, 10
 |21, 18, 16, 14, 11, 9, 29, 25, 24, 22, 20, 17, 13, 12, 11, 9, 9, 7, 25, 19, 18, 14, 11, 4, 24, 22, 20, 17, 13, 12, 9, 8, 8, 8, 7, 7, 29, 29, 29, 29, 29, 29, 15, 12, 11, 10, 8, 7, 16, 15, 13, 13, 11, 11, 26, 26, 23, 18, 17, 13, 15, 15, 14, 12, 10, 9, 26, 26, 24, 24, 22, 22, 23, 21, 14, 11, 5, 3, 1, 1, 1, 1, 1, 1, 26, 24, 21, 17, 15, 10, 23, 21, 19, 19, 17, 15, 18, 17, 17, 16, 15, 15, 16, 15, 15, 14, 13, 13, 18, 15, 15, 12, 11, 7, 16, 13, 12, 8, 6, 2, 28, 27, 25, 23, 22, 21, 29, 28, 27, 26, 26, 25, 5, 4, 4, 4, 3, 2, 24, 21, 17, 16, 13, 8, 25, 19, 17, 13, 9, 6, 10, 9, 8, 8, 6, 6, 27, 27, 27, 26, 26, 25, 16, 14, 11, 10, 8, 4, 25, 23, 19, 14, 8, 3, 18, 14, 12, 9, 6, 5, 24, 24, 20, 18, 16, 13, 13, 11, 9, 7, 5, 3, 16, 16, 14, 13, 12, 12, 18, 16, 12, 10, 9, 7, 24, 21, 16, 10, 9, 5, 21, 21, 19, 18, 14, 13, 28, 26, 22, 17, 13, 6, 25, 24, 24, 24, 24, 24, 30, 28, 27, 26, 25, 24, 22, 21, 18, 18, 14, 12, 10, 9, 8, 8, 7, 7, 7, 6, 5, 3, 3, 2, 27, 21, 21, 15, 11, 8, 28, 28, 28, 28, 28, 28, 20, 18, 17, 14, 11, 10, 24, 24, 22, 21, 21, 20, 26, 23, 22, 20, 20, 19, 18, 18, 16, 14, 12, 9, 27, 22, 16, 11, 9, 5, 23, 18, 17, 12, 11, 8
 |20, 18, 16, 14, 14, 13, 19, 18, 18, 18, 18, 18, 20, 19, 18, 17, 16, 15, 25, 22, 21, 14, 9, 6, 10, 9, 9, 9, 7, 7, 20, 18, 17, 17, 15, 15, 10, 9, 8, 8, 8, 7, 4, 4, 4, 4, 4, 4, 21, 20, 20, 20, 18, 18, 10, 9, 9, 8, 8, 8, 26, 24, 21, 14, 10, 9, 15, 14, 11, 9, 8, 6, 22, 20, 16, 16, 11, 7, 7, 6, 6, 4, 3, 3, 22, 20, 20, 17, 16, 13, 27, 21, 20, 16, 11, 5, 14, 12, 11, 9, 9, 7, 26, 21, 19, 18, 16, 14, 26, 24, 23, 23, 21, 21, 16, 15, 14, 13, 12, 12, 19, 18, 18, 17, 15, 14, 22, 20, 15, 13, 12, 9, 23, 20, 18, 14, 10, 7, 21, 16, 15, 10, 7, 3, 18, 16, 16, 15, 14, 13, 23, 20, 15, 13, 7, 7, 27, 27, 27, 27, 26, 26, 18, 16, 13, 12, 7, 4, 14, 13, 12, 11, 10, 10, 23, 21, 17, 13, 10, 8, 29, 26, 26, 24, 23, 23, 17, 16, 14, 13, 13, 12, 18, 18, 14, 12, 11, 9, 20, 18, 13, 10, 10, 5, 16, 14, 13, 8, 6, 2, 19, 19, 17, 16, 16, 15, 1, 1, 1, 1, 1, 1, 29, 29, 29, 29, 28, 28, 6, 5, 5, 5, 4, 3, 9, 8, 8, 6, 6, 5, 21, 20, 20, 20, 20, 20, 21, 19, 16, 16, 15, 13, 25, 24, 23, 21, 21, 19, 17, 13, 12, 8, 5, 5, 23, 19, 18, 16, 12, 9, 18, 16, 16, 13, 12, 10, 24, 19, 17, 16, 12, 11, 27, 27, 27, 27, 27, 27, 26, 26, 26, 25, 25, 25, 17, 16, 13, 12, 10, 8
 |1, 1, 1, 1, 1, 1, 22, 18, 16, 10, 5, 3, 19, 17, 13, 11, 11, 9, 27, 21, 18, 12, 7, 6, 24, 23, 23, 22, 20, 19, 16, 14, 14, 13, 12, 12, 26, 25, 21, 15, 11, 7, 2, 2, 2, 2, 2, 2, 27, 22, 18, 14, 11, 8, 27, 24, 22, 21, 17, 15, 13, 12, 12, 11, 10, 10, 17, 14, 11, 10, 9, 4, 23, 20, 15, 11, 8, 7, 28, 25, 23, 19, 17, 16, 21, 21, 18, 17, 14, 14, 26, 24, 24, 22, 22, 21, 30, 28, 28, 26, 26, 25, 10, 9, 9, 8, 7, 7, 30, 28, 26, 23, 21, 19, 25, 23, 22, 19, 16, 14, 9, 8, 8, 7, 7, 6, 26, 22, 21, 19, 19, 17, 23, 22, 19, 15, 14, 13, 20, 19, 15, 15, 10, 8, 20, 17, 14, 10, 8, 5, 20, 20, 19, 19, 18, 18, 29, 26, 22, 20, 16, 14, 21, 14, 12, 10, 5, 5, 29, 24, 22, 22, 20, 17, 12, 12, 11, 11, 9, 9, 28, 28, 26, 23, 22, 20, 17, 16, 16, 15, 15, 14, 19, 18, 18, 18, 17, 16, 20, 17, 12, 11, 8, 4, 25, 24, 24, 24, 23, 22, 22, 21, 21, 21, 21, 21, 15, 13, 12, 12, 11, 9, 25, 24, 23, 23, 22, 20, 27, 19, 15, 14, 9, 7, 28, 28, 28, 28, 28, 28, 18, 15, 14, 9, 9, 4, 23, 23, 20, 14, 11, 8, 28, 27, 27, 26, 26, 26, 14, 13, 11, 10, 10, 7, 24, 21, 18, 13, 10, 8, 9, 6, 5, 4, 3, 2, 20, 14, 12, 11, 7, 5, 21, 21, 21, 21, 21, 21, 8, 6, 6, 5, 5, 4, 25, 24, 21, 20, 19, 17|];